
Gurobi 8.1.1 (linux64, Python) logging started Wed May  8 20:57:17 2019

Academic license - for non-commercial use only

Gurobi 8.1.1 (linux64, Python) logging started Wed May  8 20:57:59 2019

Academic license - for non-commercial use only

Gurobi 8.1.1 (linux64, Python) logging started Wed May  8 21:07:49 2019

Academic license - for non-commercial use only

Gurobi 8.1.1 (linux64, Python) logging started Wed May  8 21:08:34 2019

Academic license - for non-commercial use only

Gurobi 8.1.1 (linux64, Python) logging started Wed May  8 21:08:58 2019

Academic license - for non-commercial use only
Optimize a model with 1130 rows, 1152 columns and 4855 nonzeros
Variable types: 576 continuous, 576 integer (576 binary)
Coefficient statistics:
  Matrix range     [1e+00, 2e+01]
  Objective range  [0e+00, 0e+00]
  Bounds range     [1e+00, 1e+00]
  RHS range        [1e+00, 2e+01]
Presolve removed 782 rows and 71 columns
Presolve time: 0.03s
Presolved: 348 rows, 1081 columns, 3243 nonzeros
Variable types: 529 continuous, 552 integer (552 binary)

Root relaxation: objective -0.000000e+00, 211 iterations, 0.00 seconds

    Nodes    |    Current Node    |     Objective Bounds      |     Work
 Expl Unexpl |  Obj  Depth IntInf | Incumbent    BestBd   Gap | It/Node Time

     0     0   -0.00000    0    7          -   -0.00000      -     -    0s
H    0     0                      -0.0000000   -0.00000  0.00%     -    0s

Explored 1 nodes (2398 simplex iterations) in 0.07 seconds
Thread count was 4 (of 4 available processors)

Solution count 1: -0 

Optimal solution found (tolerance 1.00e-04)
Best objective -0.000000000000e+00, best bound -0.000000000000e+00, gap 0.0000%

Gurobi 8.1.1 (linux64, Python) logging started Wed May  8 21:17:38 2019

Academic license - for non-commercial use only
Optimize a model with 1130 rows, 1152 columns and 4855 nonzeros
Variable types: 576 continuous, 576 integer (576 binary)
Coefficient statistics:
  Matrix range     [1e+00, 2e+01]
  Objective range  [0e+00, 0e+00]
  Bounds range     [1e+00, 1e+00]
  RHS range        [1e+00, 2e+01]
Presolve removed 782 rows and 71 columns
Presolve time: 0.01s
Presolved: 348 rows, 1081 columns, 3243 nonzeros
Variable types: 529 continuous, 552 integer (552 binary)

Root relaxation: objective -0.000000e+00, 211 iterations, 0.00 seconds

    Nodes    |    Current Node    |     Objective Bounds      |     Work
 Expl Unexpl |  Obj  Depth IntInf | Incumbent    BestBd   Gap | It/Node Time

     0     0   -0.00000    0    7          -   -0.00000      -     -    0s
H    0     0                      -0.0000000   -0.00000  0.00%     -    0s

Explored 1 nodes (2398 simplex iterations) in 0.05 seconds
Thread count was 4 (of 4 available processors)

Solution count 1: -0 

Optimal solution found (tolerance 1.00e-04)
Best objective -0.000000000000e+00, best bound -0.000000000000e+00, gap 0.0000%

Gurobi 8.1.1 (linux64, Python) logging started Wed May  8 21:19:40 2019

Academic license - for non-commercial use only
Optimize a model with 1130 rows, 1152 columns and 4855 nonzeros
Variable types: 576 continuous, 576 integer (576 binary)
Coefficient statistics:
  Matrix range     [1e+00, 2e+01]
  Objective range  [0e+00, 0e+00]
  Bounds range     [1e+00, 1e+00]
  RHS range        [1e+00, 2e+01]
Presolve removed 782 rows and 71 columns
Presolve time: 0.01s
Presolved: 348 rows, 1081 columns, 3243 nonzeros
Variable types: 529 continuous, 552 integer (552 binary)

Root relaxation: objective -0.000000e+00, 211 iterations, 0.00 seconds

    Nodes    |    Current Node    |     Objective Bounds      |     Work
 Expl Unexpl |  Obj  Depth IntInf | Incumbent    BestBd   Gap | It/Node Time

     0     0   -0.00000    0    7          -   -0.00000      -     -    0s
H    0     0                      -0.0000000   -0.00000  0.00%     -    0s

Explored 1 nodes (2398 simplex iterations) in 0.06 seconds
Thread count was 4 (of 4 available processors)

Solution count 1: -0 

Optimal solution found (tolerance 1.00e-04)
Best objective -0.000000000000e+00, best bound -0.000000000000e+00, gap 0.0000%

Gurobi 8.1.1 (linux64, Python) logging started Wed May  8 21:19:45 2019

Academic license - for non-commercial use only
Optimize a model with 1130 rows, 1152 columns and 4855 nonzeros
Variable types: 576 continuous, 576 integer (576 binary)
Coefficient statistics:
  Matrix range     [1e+00, 2e+01]
  Objective range  [0e+00, 0e+00]
  Bounds range     [1e+00, 1e+00]
  RHS range        [1e+00, 2e+01]
Presolve removed 782 rows and 71 columns
Presolve time: 0.02s
Presolved: 348 rows, 1081 columns, 3243 nonzeros
Variable types: 529 continuous, 552 integer (552 binary)

Root relaxation: objective -0.000000e+00, 211 iterations, 0.00 seconds

    Nodes    |    Current Node    |     Objective Bounds      |     Work
 Expl Unexpl |  Obj  Depth IntInf | Incumbent    BestBd   Gap | It/Node Time

     0     0   -0.00000    0    7          -   -0.00000      -     -    0s
H    0     0                      -0.0000000   -0.00000  0.00%     -    0s

Explored 1 nodes (2398 simplex iterations) in 0.06 seconds
Thread count was 4 (of 4 available processors)

Solution count 1: -0 

Optimal solution found (tolerance 1.00e-04)
Best objective -0.000000000000e+00, best bound -0.000000000000e+00, gap 0.0000%
